# Objective value = 1.9860011210924686e+03
x[0] 0
x[1] 0
x[2] 1
x[3] 1
x[4] 1
x[5] 1
x[6] 0
x[7] 0
x[8] 0
x[9] 0
x[10] 0
x[11] 1
x[12] 0
x[13] 1
x[14] 1
x[15] 0
x[16] 1
x[17] 0
x[18] 1
x[19] 1
x[20] 0
x[21] 0
x[22] 0
x[23] 0
x[24] 1
x[25] 1
x[26] 1
x[27] 1
x[28] 1
x[29] 0
x[30] 1
x[31] 0
x[32] 0
x[33] 0
x[34] 0
x[35] 1
x[36] 0
x[37] 0
x[38] 1
x[39] 0
x[40] 0
x[41] 0
x[42] 0
x[43] 1
x[44] 1
x[45] 1
x[46] 0
x[47] 1
x[48] 1
x[49] 1
x[50] 1
x[51] 0
x[52] 1
x[53] 1
x[54] 1
x[55] 1
x[56] 1
x[57] 1
x[58] 0
x[59] 1
x[60] 0
x[61] 0
x[62] 1
x[63] 0
x[64] 1
x[65] 1
x[66] 1
x[67] 1
x[68] 0
x[69] 1
x[70] 0
x[71] 1
x[72] 0
x[73] 0
x[74] 1
x[75] 1
x[76] 1
x[77] 0
x[78] 0
x[79] 0
x[80] 1
x[81] 0
x[82] 1
x[83] 0
x[84] 0
x[85] 1
x[86] 1
x[87] 1
x[88] 1
x[89] 1
x[90] 1
x[91] 0
x[92] 1
x[93] 0
x[94] 0
x[95] 1
x[96] 1
x[97] 0
x[98] 1
x[99] 1
x[100] 0
x[101] 0
x[102] 0
x[103] 1
x[104] 1
x[105] 1
x[106] 1
x[107] 0
x[108] 0
x[109] 1
x[110] 1
x[111] 1
x[112] 0
x[113] 1
x[114] 0
x[115] 1
x[116] 1
x[117] 1
x[118] 1
x[119] 0
x[120] 0
x[121] 0
x[122] 0
x[123] 1
x[124] 1
x[125] 1
x[126] 1
x[127] 1
x[128] 1
x[129] 1
x[130] 0
x[131] 0
x[132] 1
x[133] 1
x[134] 0
x[135] 0
x[136] 1
x[137] 1
x[138] 0
x[139] 1
x[140] 1
x[141] 1
x[142] 1
x[143] 0
x[144] 0
x[145] 1
x[146] 1
x[147] 0
x[148] 0
x[149] 1
x[150] 0
x[151] 1
x[152] 0
x[153] 0
x[154] 0
x[155] 0
x[156] 1
x[157] 1
x[158] 0
x[159] 1
x[160] 0
x[161] 0
x[162] 1
x[163] 0
x[164] 1
x[165] 0
x[166] 1
x[167] 1
x[168] 0
x[169] 1
x[170] 1
x[171] 1
x[172] 0
x[173] 1
x[174] 1
x[175] 1
x[176] 0
x[177] 1
x[178] 1
x[179] 1
x[180] 0
x[181] 0
x[182] 0
x[183] 1
x[184] 1
x[185] 0
x[186] 0
x[187] 0
x[188] 1
x[189] 0
x[190] 0
x[191] 0
x[192] 1
x[193] 0
x[194] 0
x[195] 1
x[196] 1
x[197] 0
x[198] 1
x[199] 0
x[200] 0
x[201] 1
x[202] 1
x[203] 1
x[204] 0
x[205] 0
x[206] 1
x[207] 1
x[208] 1
x[209] 0
x[210] 1
x[211] 1
x[212] 1
x[213] 0
x[214] 0
x[215] 1
x[216] 1
x[217] 1
x[218] 1
x[219] 1
x[220] 0
x[221] 0
x[222] 1
x[223] 1
x[224] 1
x[225] 0
x[226] 0
x[227] 0
x[228] 1
x[229] 1
x[230] 1
x[231] 1
x[232] 0
x[233] 1
x[234] 1
x[235] 0
x[236] 1
x[237] 1
x[238] 0
x[239] 1
x[240] 1
x[241] 0
x[242] 0
x[243] 1
x[244] 1
x[245] 0
x[246] 0
x[247] 0
x[248] 1
x[249] 1
x[250] 1
x[251] 0
x[252] 1
x[253] 0
x[254] 0
x[255] 0
x[256] 0
x[257] 1
x[258] 1
x[259] 0
x[260] 0
x[261] 0
x[262] 1
x[263] 1
x[264] 1
x[265] 0
x[266] 1
x[267] 1
x[268] 0
x[269] 1
x[270] 0
x[271] 0
x[272] 1
x[273] 1
x[274] 0
x[275] 0
x[276] 1
x[277] 0
x[278] 1
x[279] 1
x[280] 0
x[281] 1
x[282] 0
x[283] 0
x[284] 0
x[285] 0
x[286] 1
x[287] 1
x[288] 0
x[289] 0
x[290] 0
x[291] 1
x[292] 1
x[293] 0
x[294] 0
x[295] 0
x[296] 0
x[297] 0
x[298] 1
x[299] 0
x[300] 1
x[301] 0
x[302] 1
x[303] 0
x[304] 1
x[305] 0
x[306] 0
x[307] 1
x[308] 0
x[309] 1
x[310] 1
x[311] 1
x[312] 1
x[313] 1
x[314] 1
x[315] 0
x[316] 1
x[317] 1
x[318] 1
x[319] 1
x[320] 0
x[321] 1
x[322] 0
x[323] 0
x[324] 1
x[325] 1
x[326] 0
x[327] 0
x[328] 0
x[329] 1
x[330] 0
x[331] 0
x[332] 1
x[333] 1
x[334] 1
x[335] 1
x[336] 1
x[337] 0
x[338] 1
x[339] 1
x[340] 0
x[341] 1
x[342] 1
x[343] 1
x[344] 0
x[345] 1
x[346] 0
x[347] 1
x[348] 0
x[349] 0
x[350] 0
x[351] 1
x[352] 0
x[353] 0
x[354] 0
x[355] 1
x[356] 0
x[357] 1
x[358] 0
x[359] 1
x[360] 1
x[361] 1
x[362] 0
x[363] 1
x[364] 1
x[365] 1
x[366] 1
x[367] 0
x[368] 0
x[369] 1
x[370] 0
x[371] 0
x[372] 0
x[373] 0
x[374] 0
x[375] 1
x[376] 0
x[377] 1
x[378] 1
x[379] 1
x[380] 0
x[381] 0
x[382] 0
x[383] 0
x[384] 1
x[385] 1
x[386] 1
x[387] 0
x[388] 0
x[389] 1
x[390] 1
x[391] 1
x[392] 0
x[393] 1
x[394] 1
x[395] 1
x[396] 0
x[397] 0
x[398] 0
x[399] 1
x[400] 0
x[401] 1
x[402] 0
x[403] 0
x[404] 0
x[405] 1
x[406] 1
x[407] 1
x[408] 1
x[409] 1
x[410] 1
x[411] 1
x[412] 1
x[413] 0
x[414] 0
x[415] 1
x[416] 0
x[417] 0
x[418] 1
x[419] 1
x[420] 0
x[421] 1
x[422] 1
x[423] 1
x[424] 0
x[425] 1
x[426] 1
x[427] 0
x[428] 1
x[429] 1
x[430] 0
x[431] 0
x[432] 1
x[433] 1
x[434] 0
x[435] 0
x[436] 0
x[437] 0
x[438] 0
x[439] 1
x[440] 1
x[441] 1
x[442] 1
x[443] 1
x[444] 0
x[445] 0
x[446] 0
x[447] 0
x[448] 0
x[449] 1
x[450] 1
x[451] 0
x[452] 0
x[453] 0
x[454] 0
x[455] 1
x[456] 0
x[457] 1
x[458] 0
x[459] 1
x[460] 1
x[461] 0
x[462] 1
x[463] 1
x[464] 1
x[465] 0
x[466] 0
x[467] 1
x[468] 1
x[469] 1
x[470] 1
x[471] 1
x[472] 0
x[473] 1
x[474] 0
x[475] 0
x[476] 1
x[477] 0
x[478] 0
x[479] 1
x[480] 0
x[481] 1
x[482] 1
x[483] 1
x[484] 0
x[485] 0
x[486] 1
x[487] 0
x[488] 1
x[489] 1
x[490] 1
x[491] 1
x[492] 1
x[493] 0
x[494] 0
x[495] 0
x[496] 0
x[497] 1
x[498] 1
x[499] 1
x[500] 1
x[501] 0
x[502] 0
x[503] 1
x[504] 0
x[505] 1
x[506] 1
x[507] 0
x[508] 0
x[509] 1
x[510] 1
x[511] 1
x[512] 1
x[513] 1
x[514] 1
x[515] 0
x[516] 1
x[517] 1
x[518] 1
x[519] 1
x[520] 1
x[521] 1
x[522] 0
x[523] 0
x[524] 0
x[525] 1
x[526] 0
x[527] 1
x[528] 1
x[529] 1
x[530] 0
x[531] 1
x[532] 0
x[533] 1
x[534] 1
x[535] 1
x[536] 0
x[537] 1
x[538] 1
x[539] 1
x[540] 1
x[541] 1
x[542] 1
x[543] 0
x[544] 0
x[545] 0
x[546] 1
x[547] 1
x[548] 1
x[549] 0
x[550] 1
x[551] 0
x[552] 1
x[553] 1
x[554] 1
x[555] 0
x[556] 1
x[557] 1
x[558] 1
x[559] 0
x[560] 1
x[561] 0
x[562] 1
x[563] 0
x[564] 1
x[565] 1
x[566] 1
x[567] 1
x[568] 0
x[569] 1
x[570] 1
x[571] 1
x[572] 0
x[573] 1
x[574] 1
x[575] 1
x[576] 1
x[577] 1
x[578] 1
x[579] 0
x[580] 1
x[581] 0
x[582] 1
x[583] 0
x[584] 0
x[585] 0
x[586] 1
x[587] 0
x[588] 0
x[589] 1
x[590] 0
x[591] 1
x[592] 1
x[593] 0
x[594] 1
x[595] 1
x[596] 1
x[597] 0
x[598] 0
x[599] 0
x[600] 1
x[601] 0
x[602] 0
x[603] 1
x[604] 1
x[605] 1
x[606] 0
x[607] 0
x[608] 0
x[609] 0
x[610] 0
x[611] 1
x[612] 1
x[613] 1
x[614] 0
x[615] 1
x[616] 1
x[617] 1
x[618] 1
x[619] 1
x[620] 0
x[621] 0
x[622] 0
x[623] 1
x[624] 0
x[625] 1
x[626] 0
x[627] 1
x[628] 0
x[629] 0
x[630] 1
x[631] 1
x[632] 0
x[633] 1
x[634] 0
x[635] 1
x[636] 1
x[637] 0
x[638] 0
x[639] 0
x[640] 0
x[641] 0
x[642] 1
x[643] 1
x[644] 0
x[645] 1
x[646] 0
x[647] 1
x[648] 1
x[649] 0
x[650] 1
x[651] 1
x[652] 1
x[653] 1
x[654] 1
x[655] 1
x[656] 0
x[657] 1
x[658] 0
x[659] 0
x[660] 1
x[661] 0
x[662] 1
x[663] 1
x[664] 1
x[665] 1
x[666] 0
x[667] 0
x[668] 0
x[669] 0
x[670] 0
x[671] 0
x[672] 0
x[673] 1
x[674] 1
x[675] 1
x[676] 1
x[677] 0
x[678] 1
x[679] 1
x[680] 1
x[681] 0
x[682] 0
x[683] 0
x[684] 0
x[685] 1
x[686] 1
x[687] 1
x[688] 1
x[689] 0
x[690] 1
x[691] 0
x[692] 1
x[693] 1
x[694] 1
x[695] 0
x[696] 0
x[697] 1
x[698] 1
x[699] 0
x[700] 0
x[701] 0
x[702] 1
x[703] 0
x[704] 1
x[705] 0
x[706] 1
x[707] 1
x[708] 1
x[709] 1
x[710] 1
x[711] 1
x[712] 1
x[713] 1
x[714] 0
x[715] 1
x[716] 0
x[717] 0
x[718] 1
x[719] 0
x[720] 1
x[721] 0
x[722] 1
x[723] 0
x[724] 1
x[725] 0
x[726] 0
x[727] 1
x[728] 1
x[729] 1
x[730] 1
x[731] 0
x[732] 1
x[733] 0
x[734] 1
x[735] 1
x[736] 1
x[737] 1
x[738] 1
x[739] 0
x[740] 1
x[741] 1
x[742] 1
x[743] 0
x[744] 1
x[745] 0
x[746] 1
x[747] 0
x[748] 1
x[749] 1
x[750] 0
x[751] 1
x[752] 1
x[753] 0
x[754] 1
x[755] 1
x[756] 1
x[757] 0
x[758] 1
x[759] 0
x[760] 1
x[761] 1
x[762] 1
x[763] 0
x[764] 0
x[765] 0
x[766] 1
x[767] 0
x[768] 1
x[769] 0
x[770] 0
x[771] 0
x[772] 0
x[773] 1
x[774] 1
x[775] 0
x[776] 0
x[777] 0
x[778] 0
x[779] 0
x[780] 0
x[781] 1
x[782] 0
x[783] 0
x[784] 0
x[785] 1
x[786] 0
x[787] 1
x[788] 1
x[789] 1
x[790] 0
x[791] 1
x[792] 1
x[793] 0
x[794] 0
x[795] 1
x[796] 0
x[797] 1
x[798] 0
x[799] 1
x[800] 0
x[801] 0
x[802] 0
x[803] 1
x[804] 0
x[805] 1
x[806] 0
x[807] 0
x[808] 0
x[809] 1
x[810] 0
x[811] 1
x[812] 1
x[813] 1
x[814] 0
x[815] 1
x[816] 0
x[817] 1
x[818] 0
x[819] 1
x[820] 1
x[821] 1
x[822] 1
x[823] 1
x[824] 1
x[825] 1
x[826] 1
x[827] 0
x[828] 1
x[829] 1
x[830] 1
x[831] 1
x[832] 1
x[833] 1
x[834] 0
x[835] 0
x[836] 1
x[837] 1
x[838] 0
x[839] 1
x[840] 1
x[841] 0
x[842] 1
x[843] 1
x[844] 1
x[845] 0
x[846] 1
x[847] 1
x[848] 1
x[849] 1
x[850] 0
x[851] 0
x[852] 0
x[853] 0
x[854] 1
x[855] 0
x[856] 0
x[857] 1
x[858] 1
x[859] 0
x[860] 1
x[861] 1
x[862] 0
x[863] 0
x[864] 0
x[865] 1
x[866] 0
x[867] 1
x[868] 0
x[869] 0
x[870] 0
x[871] 1
x[872] 1
x[873] 1
x[874] 1
x[875] 1
x[876] 1
x[877] 0
x[878] 1
x[879] 0
x[880] 0
x[881] 0
x[882] 0
x[883] 0
x[884] 0
x[885] 0
x[886] 1
x[887] 1
x[888] 0
x[889] 1
x[890] 0
x[891] 0
x[892] 1
x[893] 0
x[894] 1
x[895] 1
x[896] 1
x[897] 0
x[898] 0
x[899] 1
x[900] 1
x[901] 1
x[902] 1
x[903] 0
x[904] 1
x[905] 1
x[906] 1
x[907] 1
x[908] 1
x[909] 0
x[910] 1
x[911] 1
x[912] 1
x[913] 1
x[914] 0
x[915] 1
x[916] 1
x[917] 0
x[918] 1
x[919] 0
x[920] 0
x[921] 0
x[922] 1
x[923] 1
x[924] 0
x[925] 0
x[926] 1
x[927] 0
x[928] 1
x[929] 0
x[930] 0
x[931] 1
x[932] 0
x[933] 1
x[934] 0
x[935] 1
x[936] 1
x[937] 1
x[938] 0
x[939] 0
x[940] 0
x[941] 1
x[942] 1
x[943] 1
x[944] 0
x[945] 1
x[946] 1
x[947] 1
x[948] 1
x[949] 1
x[950] 1
x[951] 1
x[952] 1
x[953] 1
x[954] 0
x[955] 0
x[956] 0
x[957] 1
x[958] 0
x[959] 0
x[960] 0
x[961] 1
x[962] 0
x[963] 0
x[964] 1
x[965] 0
x[966] 0
x[967] 1
x[968] 0
x[969] 0
x[970] 1
x[971] 0
x[972] 1
x[973] 1
x[974] 1
x[975] 0
x[976] 1
x[977] 1
x[978] 1
x[979] 0
x[980] 1
x[981] 1
x[982] 1
x[983] 1
x[984] 1
x[985] 1
x[986] 0
x[987] 1
x[988] 0
x[989] 1
x[990] 1
x[991] 1
x[992] 1
x[993] 1
x[994] 0
x[995] 0
x[996] 1
x[997] 1
x[998] 1
x[999] 1
